995656
187,166,94,196,142,163,153,64,13,200,199,197,9,190,151,121,225,68,22,158,207,15,62,161,228,132,111,154,86,150,49,27,214,74,183,45,83,181,174,53,55,17,91,52,99,215,104,201,98,189,65,23,218,140,127,50,176,159,41,112,72,208,125,69,85,109,164,29,63,165,100,115,95,90,210,155,43,219,12,47,193,96,119,137,2,184,188,59,136,14,7,113,192,118,217,97,198,162,117,139,70,48,66,126,146,177,30,42,206,38,73,156,82,134,31,71,0,6,35,93,107,34,61,101,168,26,80,39,129,54,77,25,143,79,131,1,81,157,179,120,105,40,221,76,148,114,203,171,57,133,4,144,116,209,182,19,21,88,195,106,178,191,36,33,204,160,8,67,5,102,186,11,145,223,37,103,211,51,24,60,122,84,78,56,75,10,138,220,58,212,92,167,44,229,202,32,128,152,216,141,169,149,185,170,89,108,87,227,20,3,222,175,16,46,224,110,18,226,124,213,173,28,194,205,135,180,123,130,147,172,187